J = 10;
M = 5;

machine = array2d(JOB, TASK, [
    4,3,1,5,2,
    1,5,3,4,2,
    2,1,4,5,3,
    5,4,2,1,3,
    3,2,5,4,1,
    1,3,5,2,4,
    5,1,4,3,2,
    4,2,1,3,5,
    3,5,4,1,2,
    2,4,3,5,1
]);

duration = array2d(JOB, MACH, [
    77,42,58,94,61,
    67,76,55,43,38,
    49,92,88,17,55,
    85,71,66,19,42,
    36,55,19,99,23,
    58,44,82,67,91,
    29,94,78,65,51,
    47,22,59,88,34,
    91,33,24,65,52,
    36,94,55,48,79
]);
